   30000
      45
   10022         1
   10021         1
   10020         1
   10019         1
   10018         1
   10017         1
   10016         1
   10015         1
   10014         1
   10013         1
   10012         1
   10011         1
   10010         1
   10009         1
   10008         1
   10007         1
   10006         1
   10005         1
   10004         1
   10003         1
   10002         1
   10001         1
   10000         1
    9999         1
    9998         1
    9997         1
    9996         1
    9995         1
    9994         1
    9993         1
    9992         1
    9991         1
    9990         1
    9989         1
    9988         1
    9987         1
    9986         1
    9985         1
    9984         1
    9983         1
    9982         1
    9981         1
    9980         1
    9979         1
    9978         1
